127 133653
1 115 52 124 55 66 113 65 99 92 89 125 104 110 85 86 87 88 109 96 119 63 95 93 127 107 111 112 94 46 48 118 53 49 47 56 5 121 57 54 45 103 44 35 37 36 2 51 50 13 10 120 7 105 114 6 106 15 20 108 22 21 19 23 17 77 18 8 72 4 24 9 11 3 100 64 58 91 61 60 116 90 62 59 67 73 74 68 71 70 69 75 76 78 80 31 27 30 41 43 40 34 42 39 38 26 25 32 29 33 122 28 123 97 98 101 102 83 82 126 81 84 117 79 12 14 16 
